NAME : n100w100.005.749.tour
COMMENT : Length = 749
COMMENT : Found by LKH [Keld Helsgaun] Tue Nov  7 19:45:12 2017
TYPE : TOUR
DIMENSION : 101
TOUR_SECTION
1
7
57
69
3
46
87
56
73
91
82
79
27
22
31
99
34
30
67
71
29
61
23
78
10
48
90
9
5
16
58
62
12
65
6
93
20
40
86
32
47
21
50
96
38
26
63
13
45
17
53
18
75
59
54
42
15
24
52
2
97
81
98
70
89
44
11
95
55
25
76
41
68
64
84
72
92
43
36
19
85
35
88
83
51
77
100
94
60
80
39
14
4
66
28
37
8
49
74
101
33
-1
EOF
